c Reduced graph for GEOM50a generated by Cyril Grelier
p edge 28 129
e 1 2
e 1 3
e 1 5
e 1 6
e 1 7
e 1 11
e 1 12
e 1 15
e 1 17
e 1 19
e 1 21
e 1 24
e 1 25
e 1 27
e 2 3
e 2 5
e 2 11
e 2 12
e 2 15
e 2 19
e 2 24
e 2 27
e 3 15
e 3 19
e 3 27
e 4 9
e 4 10
e 4 16
e 5 6
e 5 7
e 5 11
e 5 12
e 5 15
e 5 17
e 5 19
e 5 21
e 5 24
e 5 25
e 5 27
e 6 7
e 6 11
e 6 12
e 6 15
e 6 17
e 6 19
e 6 21
e 6 24
e 6 25
e 6 27
e 7 11
e 7 17
e 7 21
e 7 24
e 7 25
e 8 13
e 8 14
e 8 18
e 8 20
e 8 22
e 8 23
e 8 26
e 8 28
e 9 10
e 9 16
e 9 18
e 9 20
e 9 26
e 10 16
e 10 18
e 11 12
e 11 15
e 11 17
e 11 19
e 11 21
e 11 24
e 11 25
e 11 27
e 12 15
e 12 19
e 12 25
e 12 27
e 13 14
e 13 16
e 13 18
e 13 20
e 13 22
e 13 23
e 13 26
e 13 28
e 14 16
e 14 18
e 14 20
e 14 22
e 14 23
e 14 26
e 14 28
e 15 19
e 15 24
e 15 25
e 15 27
e 16 18
e 16 20
e 16 26
e 16 28
e 17 21
e 17 24
e 17 25
e 18 20
e 18 22
e 18 23
e 18 26
e 18 28
e 19 24
e 19 27
e 20 22
e 20 23
e 20 26
e 20 28
e 21 24
e 21 25
e 22 23
e 22 26
e 22 28
e 23 26
e 23 28
e 24 25
e 24 27
e 25 27
e 26 28
